
Gurobi 8.0.1 (linux64, C++) logging started Thu Jan 10 16:50:07 2019

Academic license - for non-commercial use only

Gurobi 8.0.1 (linux64, C++) logging started Thu Jan 10 16:50:54 2019

Academic license - for non-commercial use only

Gurobi 8.0.1 (linux64, C++) logging started Thu Jan 10 16:56:44 2019

Academic license - for non-commercial use only

Gurobi 8.0.1 (linux64, C++) logging started Thu Jan 10 17:02:00 2019

Academic license - for non-commercial use only

Gurobi 8.0.1 (linux64, C++) logging started Thu Jan 10 17:05:30 2019

Academic license - for non-commercial use only

Gurobi 8.0.1 (linux64, C++) logging started Thu Jan 10 17:07:39 2019

Academic license - for non-commercial use only

Gurobi 8.0.1 (linux64, C++) logging started Thu Jan 10 17:09:22 2019

Academic license - for non-commercial use only

Gurobi 8.0.1 (linux64, C++) logging started Thu Jan 10 22:44:25 2019

Academic license - for non-commercial use only

Gurobi 8.0.1 (linux64, C++) logging started Thu Jan 10 22:47:54 2019

Academic license - for non-commercial use only

Gurobi 8.0.1 (linux64, C++) logging started Thu Jan 10 22:53:54 2019

Academic license - for non-commercial use only

Gurobi 8.0.1 (linux64, C++) logging started Fri Jan 11 04:18:33 2019

Academic license - for non-commercial use only

Gurobi 8.0.1 (linux64, C++) logging started Fri Jan 11 15:36:46 2019

Academic license - for non-commercial use only

Gurobi 8.0.1 (linux64, C++) logging started Fri Jan 11 16:39:45 2019

Academic license - for non-commercial use only

Gurobi 8.0.1 (linux64, C++) logging started Sat Jan 12 04:06:55 2019

Academic license - for non-commercial use only

Gurobi 8.0.1 (linux64, C++) logging started Sat Jan 12 04:41:33 2019

Academic license - for non-commercial use only

Gurobi 8.0.1 (linux64, C++) logging started Sat Jan 12 15:29:41 2019

Academic license - for non-commercial use only

Gurobi 8.0.1 (linux64, C++) logging started Sat Jan 12 15:32:11 2019

Academic license - for non-commercial use only

Gurobi 8.0.1 (linux64, C++) logging started Sat Jan 12 16:13:39 2019

Academic license - for non-commercial use only

Gurobi 8.0.1 (linux64, C++) logging started Sat Jan 12 16:15:27 2019

Academic license - for non-commercial use only

Gurobi 8.0.1 (linux64, C++) logging started Sat Jan 12 16:22:59 2019

Academic license - for non-commercial use only

Gurobi 8.0.1 (linux64, C++) logging started Sat Jan 12 22:24:22 2019

Academic license - for non-commercial use only

Gurobi 8.0.1 (linux64, C++) logging started Sat Jan 12 22:26:27 2019

Academic license - for non-commercial use only

Gurobi 8.0.1 (linux64, C++) logging started Mon Jan 14 03:56:00 2019

Academic license - for non-commercial use only

Gurobi 8.0.1 (linux64, C++) logging started Mon Jan 14 04:02:15 2019

Academic license - for non-commercial use only

Gurobi 8.0.1 (linux64, C++) logging started Tue Jan 15 16:06:24 2019

Academic license - for non-commercial use only

Gurobi 8.0.1 (linux64, C++) logging started Tue Jan 15 17:21:35 2019

Academic license - for non-commercial use only

Gurobi 8.0.1 (linux64, C++) logging started Tue Jan 15 17:24:00 2019

Academic license - for non-commercial use only

Gurobi 8.0.1 (linux64, C++) logging started Tue Jan 15 17:25:38 2019

Academic license - for non-commercial use only

Gurobi 8.0.1 (linux64, C++) logging started Tue Jan 15 17:26:56 2019

Academic license - for non-commercial use only

Gurobi 8.0.1 (linux64, C++) logging started Tue Jan 15 17:29:38 2019

Academic license - for non-commercial use only

Gurobi 8.0.1 (linux64, C++) logging started Tue Jan 15 17:35:07 2019

Academic license - for non-commercial use only

Gurobi 8.0.1 (linux64, C++) logging started Tue Jan 15 21:46:12 2019

Academic license - for non-commercial use only

Gurobi 8.0.1 (linux64, C++) logging started Tue Jan 15 21:48:03 2019

Academic license - for non-commercial use only

Gurobi 8.0.1 (linux64, C++) logging started Tue Jan 15 21:53:16 2019

Academic license - for non-commercial use only

Gurobi 8.0.1 (linux64, C++) logging started Tue Jan 15 21:54:45 2019

Academic license - for non-commercial use only

Gurobi 8.0.1 (linux64, C++) logging started Wed Jan 16 01:06:00 2019

Academic license - for non-commercial use only

Gurobi 8.0.1 (linux64, C++) logging started Wed Jan 16 01:07:48 2019

Academic license - for non-commercial use only

Gurobi 8.0.1 (linux64, C++) logging started Wed Jan 16 01:21:12 2019

Academic license - for non-commercial use only

Gurobi 8.0.1 (linux64, C++) logging started Wed Jan 16 01:27:49 2019

Academic license - for non-commercial use only

Gurobi 8.0.1 (linux64, C++) logging started Wed Jan 16 01:30:54 2019

Academic license - for non-commercial use only

Gurobi 8.0.1 (linux64, C++) logging started Wed Jan 16 16:13:57 2019

Academic license - for non-commercial use only

Gurobi 8.0.1 (linux64, C++) logging started Wed Jan 16 16:14:55 2019

Academic license - for non-commercial use only

Gurobi 8.0.1 (linux64, C++) logging started Thu Jan 17 02:08:13 2019

Academic license - for non-commercial use only

Gurobi 8.0.1 (linux64, C++) logging started Thu Jan 17 02:34:02 2019

Academic license - for non-commercial use only

Gurobi 8.0.1 (linux64, C++) logging started Thu Jan 17 02:42:59 2019

Academic license - for non-commercial use only

Gurobi 8.0.1 (linux64, C++) logging started Thu Jan 17 02:50:19 2019

Academic license - for non-commercial use only

Gurobi 8.0.1 (linux64, C++) logging started Thu Jan 17 02:56:07 2019

Academic license - for non-commercial use only

Gurobi 8.0.1 (linux64, C++) logging started Thu Jan 17 15:40:47 2019

Academic license - for non-commercial use only

Gurobi 8.0.1 (linux64, C++) logging started Thu Jan 17 15:45:19 2019

Academic license - for non-commercial use only

Gurobi 8.0.1 (linux64, C++) logging started Thu Jan 17 15:47:23 2019

Academic license - for non-commercial use only

Gurobi 8.0.1 (linux64, C++) logging started Fri Jan 18 17:01:50 2019

Academic license - for non-commercial use only

Gurobi 8.0.1 (linux64, C++) logging started Fri Jan 18 17:03:01 2019

Academic license - for non-commercial use only

Gurobi 8.0.1 (linux64, C++) logging started Fri Jan 18 17:06:36 2019

Academic license - for non-commercial use only

Gurobi 8.0.1 (linux64, C++) logging started Fri Jan 18 18:35:22 2019

Academic license - for non-commercial use only

Gurobi 8.0.1 (linux64, C++) logging started Mon Jan 21 02:18:06 2019

Academic license - for non-commercial use only

Gurobi 8.0.1 (linux64, C++) logging started Mon Jan 21 02:18:51 2019

Academic license - for non-commercial use only

Gurobi 8.0.1 (linux64, C++) logging started Mon Jan 21 15:10:48 2019

Academic license - for non-commercial use only

Gurobi 8.0.1 (linux64, C++) logging started Mon Jan 21 16:09:58 2019

Academic license - for non-commercial use only

Gurobi 8.0.1 (linux64, C++) logging started Wed Jan 23 22:54:08 2019

Academic license - for non-commercial use only

Gurobi 8.0.1 (linux64, C++) logging started Wed Jan 23 23:06:25 2019

Academic license - for non-commercial use only

Gurobi 8.0.1 (linux64, C++) logging started Wed Jan 23 23:17:05 2019

Academic license - for non-commercial use only

Gurobi 8.0.1 (linux64, C++) logging started Wed Jan 23 23:28:24 2019

Academic license - for non-commercial use only

Gurobi 8.0.1 (linux64, C++) logging started Wed Jan 23 23:38:54 2019

Academic license - for non-commercial use only

Gurobi 8.0.1 (linux64, C++) logging started Fri Jan 25 01:11:57 2019

Academic license - for non-commercial use only

Gurobi 8.0.1 (linux64, C++) logging started Fri Jan 25 19:23:51 2019

Academic license - for non-commercial use only

Gurobi 8.0.1 (linux64, C++) logging started Sat Jan 26 01:46:40 2019

Academic license - for non-commercial use only

Gurobi 8.0.1 (linux64, C++) logging started Sat Jan 26 01:48:57 2019

Academic license - for non-commercial use only

Gurobi 8.0.1 (linux64, C++) logging started Sat Jan 26 01:50:40 2019

Academic license - for non-commercial use only

Gurobi 8.0.1 (linux64, C++) logging started Sat Jan 26 01:58:29 2019

Academic license - for non-commercial use only

Gurobi 8.0.1 (linux64, C++) logging started Sat Jan 26 02:16:41 2019

Academic license - for non-commercial use only

Gurobi 8.0.1 (linux64, C++) logging started Sat Jan 26 03:15:31 2019

Academic license - for non-commercial use only

Gurobi 8.0.1 (linux64, C++) logging started Sat Jan 26 19:32:39 2019

Academic license - for non-commercial use only

Gurobi 8.0.1 (linux64, C++) logging started Sat Jan 26 21:57:53 2019

Academic license - for non-commercial use only

Gurobi 8.0.1 (linux64, C++) logging started Sat Jan 26 23:25:03 2019

Academic license - for non-commercial use only

Gurobi 8.0.1 (linux64, C++) logging started Sat Jan 26 23:26:38 2019

Academic license - for non-commercial use only

Gurobi 8.0.1 (linux64, C++) logging started Sat Jan 26 23:27:57 2019

Academic license - for non-commercial use only

Gurobi 8.0.1 (linux64, C++) logging started Sat Jan 26 23:43:05 2019

Academic license - for non-commercial use only

Gurobi 8.0.1 (linux64, C++) logging started Sun Jan 27 00:08:00 2019

Academic license - for non-commercial use only

Gurobi 8.0.1 (linux64, C++) logging started Sun Jan 27 00:09:49 2019

Academic license - for non-commercial use only

Gurobi 8.0.1 (linux64, C++) logging started Sun Jan 27 00:11:38 2019

Academic license - for non-commercial use only

Gurobi 8.0.1 (linux64, C++) logging started Sun Jan 27 00:18:08 2019

Academic license - for non-commercial use only

Gurobi 8.0.1 (linux64, C++) logging started Sun Jan 27 00:48:46 2019

Academic license - for non-commercial use only

Gurobi 8.0.1 (linux64, C++) logging started Sun Jan 27 20:56:49 2019

Academic license - for non-commercial use only

Gurobi 8.0.1 (linux64, C++) logging started Sun Jan 27 21:15:23 2019

Academic license - for non-commercial use only

Gurobi 8.0.1 (linux64, C++) logging started Sun Jan 27 21:17:35 2019

Academic license - for non-commercial use only

Gurobi 8.0.1 (linux64, C++) logging started Mon Jan 28 02:42:16 2019

Academic license - for non-commercial use only

Gurobi 8.0.1 (linux64, C++) logging started Wed Jan 30 02:45:58 2019

Academic license - for non-commercial use only

Gurobi 8.0.1 (linux64, C++) logging started Wed Jan 30 03:05:45 2019

Academic license - for non-commercial use only

Gurobi 8.0.1 (linux64, C++) logging started Wed Jan 30 03:17:36 2019

Academic license - for non-commercial use only

Gurobi 8.0.1 (linux64, C++) logging started Wed Jan 30 03:22:03 2019

Academic license - for non-commercial use only

Gurobi 8.0.1 (linux64, C++) logging started Wed Jan 30 03:44:15 2019

Academic license - for non-commercial use only

Gurobi 8.0.1 (linux64, C++) logging started Wed Jan 30 03:46:55 2019

Academic license - for non-commercial use only

Gurobi 8.0.1 (linux64, C++) logging started Wed Jan 30 03:49:18 2019

Academic license - for non-commercial use only

Gurobi 8.0.1 (linux64, C++) logging started Wed Jan 30 03:50:25 2019

Academic license - for non-commercial use only

Gurobi 8.0.1 (linux64, C++) logging started Wed Jan 30 03:52:42 2019

Academic license - for non-commercial use only

Gurobi 8.0.1 (linux64, C++) logging started Wed Jan 30 03:54:26 2019

Academic license - for non-commercial use only

Gurobi 8.0.1 (linux64, C++) logging started Wed Jan 30 04:40:48 2019

Academic license - for non-commercial use only

Gurobi 8.0.1 (linux64, C++) logging started Wed Jan 30 06:06:43 2019

Academic license - for non-commercial use only

Gurobi 8.0.1 (linux64, C++) logging started Wed Jan 30 13:58:38 2019

Academic license - for non-commercial use only

Gurobi 8.0.1 (linux64, C++) logging started Wed Jan 30 15:02:36 2019

Academic license - for non-commercial use only

Gurobi 8.0.1 (linux64, C++) logging started Thu Jan 31 22:22:50 2019

Academic license - for non-commercial use only

Gurobi 8.0.1 (linux64, C++) logging started Thu Feb  7 16:20:35 2019

Academic license - for non-commercial use only

Gurobi 8.0.1 (linux64, C++) logging started Fri Feb  8 22:21:53 2019

Academic license - for non-commercial use only

Gurobi 8.0.1 (linux64, C++) logging started Fri Feb  8 22:50:53 2019

Academic license - for non-commercial use only

Gurobi 8.0.1 (linux64, C++) logging started Fri Feb  8 23:51:44 2019

Academic license - for non-commercial use only

Gurobi 8.0.1 (linux64, C++) logging started Sat Feb  9 00:18:55 2019

Academic license - for non-commercial use only

Gurobi 8.0.1 (linux64, C++) logging started Sat Feb  9 01:17:27 2019

Academic license - for non-commercial use only

Gurobi 8.0.1 (linux64, C++) logging started Sat Feb  9 01:50:39 2019

Academic license - for non-commercial use only

Gurobi 8.0.1 (linux64, C++) logging started Sat Feb  9 01:55:03 2019

Academic license - for non-commercial use only

Gurobi 8.0.1 (linux64, C++) logging started Sat Feb  9 02:12:16 2019

Academic license - for non-commercial use only

Gurobi 8.0.1 (linux64, C++) logging started Sat Jan 25 00:23:35 2020

Academic license - for non-commercial use only

Gurobi 8.0.1 (linux64, C++) logging started Sat Jan 25 00:35:48 2020

Academic license - for non-commercial use only

Gurobi 8.0.1 (linux64, C++) logging started Sat Jan 25 00:43:37 2020

Academic license - for non-commercial use only
